### This is a input file for simulating the results from Pezzini et. al.
# c = 1
# The length scales are given in the proton skin depth d_p.
# The time scales are in the proton plasma frequency.

Lx = 64
Ly = 256
Lz = 1

umin_e = -0.1
umax_e = 0.1
vmin_e = -0.1
vmax_e = 0.1
wmin_e = -0.1
wmax_e = 0.1

umin_i = -0.015
umax_i = 0.015
vmin_i = -0.012
vmax_i = 0.012
wmin_i = -0.012
wmax_i = 0.012

Nx = 32
Ny = 32
Nz = 1
steps_per_1 = 200
Nt = 5000

Nu_e = 8
Nv_e = 8
Nw_e = 8

Nu_i = 16
Nv_i = 16
Nw_i = 8

nx_r = 64
ny_r = 128
nz_r = 1

nu_r_e = 128
nv_r_e = 128
nw_r_e = 128

nu_r_i = 128
nv_r_i = 128
nw_r_i = 128

nt_restart = 50

u_th_core_e = 0.02071
v_th_core_e = 0.02071
w_th_core_e = 0.02071
u_th_beam_e = 1
v_th_beam_e = 1
w_th_beam_e = 1
u_core_e = 0
v_core_e = 0
w_core_e = 0
u_beam_e = 0
v_beam_e = 0
w_beam_e = 0

ratio_core_beam_u_e = 1
ratio_core_beam_v_e = 1
ratio_core_beam_w_e = 1

u_th_core_i = 0.00186
v_th_core_i = 0.00163
w_th_core_i = 0.00163
u_th_beam_i = 0.00292
v_th_beam_i = 0.00230
w_th_beam_i = 0.00230
u_core_i = -0.00053
v_core_i = 0
w_core_i = 0
u_beam_i = 0.00339
v_beam_i = 0
w_beam_i = 0

ratio_core_beam_u_i = 0.864
ratio_core_beam_v_i = 0.864
ratio_core_beam_w_i = 0.864

dim = 3

m_e = 1
m_i = 50
q_e = -1
q_i = 1

tol_refinement_electron = 5e-2
tol_refinement_ion = 5e-2

max_depth_electron = 3
max_depth_ion = 3
